(set-logic QF_S)
(declare-fun var0 () String)
(declare-fun var1 () String)
(declare-fun var2 () String)
(declare-fun var3 () String)
(declare-fun var4 () Int)
(declare-fun var5 () Int)
(declare-fun var6 () Int)
(declare-fun var7 () Int)
(assert (str.in.re (str.replace (str.replace var0 var1 "") (str.replace var2 var3 var0) (str.replace var1 var3 var0)) (re.+ (re.* re.allchar))))
(assert (>= (str.to.int var1) (str.indexof var1 "xdLh`%D#)(" var4)))
(assert (> (str.indexof var3 var0 var5) (str.len var2)))
(assert (str.in.re (str.substr var1 var6 var7) (re.* re.allchar)))
(check-sat)